#Generated by Multiwfn
&GLOBAL
  PROJECT k2reh9-refine
  PRINT_LEVEL LOW
  RUN_TYPE CELL_OPT
&END GLOBAL

&FORCE_EVAL
  METHOD Quickstep
  &SUBSYS
    &CELL
      A     9.691     0.000     0.000
      B    -4.810     8.413     0.000 
      C     0.000     0.000     5.706
      PERIODIC XYZ #Direction of applied PBC (geometry aspect)
    &END CELL
    &COORD
  K        -1.2558488724        2.2006561653        2.8528315416
  K         3.6056710442        6.2147826995        2.8528315383
  K         2.5337691322        0.0019792003        2.8528315571
  K        -2.8321552830        4.9560287939        0.0000000311
  K         2.0066157818        3.4586295569       -0.0000000269
  K         5.7081521839        0.0010789324        0.0000000278
 Re         4.8571785554        2.8039248183        2.8528315499
 Re         0.0234382187        5.6083829765        2.8528315526
 Re        -0.0000638786       -0.0001099606       -0.0000000055
  H         6.0270652495        2.5945198607        4.0766192575
  H         4.4539534701        3.9229323799        4.0757259845
  H         4.0894727226        1.8947602744        4.0751317071
  H        -0.3848103609        4.4906671571        1.6305327076
  H         4.0894727162        1.8947602632        1.6305314009
  H         6.0270652713        2.5945198686        1.6290438503
  H         4.4539534568        3.9229323662        1.6299370985
  H        -0.7389977868        6.5200724154        4.0766186544
  H         1.1950192311        5.8137176574        4.0757278734
  H         1.6781788362       -0.0039857278       -0.0000000099
  H         4.0388741329        6.9614774107       -0.0000000006
  H        -0.8363820802        1.4549103043       -0.0000000041
  H         8.4818032881        0.0022916350        1.1978086117
  H         0.6071583592        1.0465002108        4.5092456422
  H        -4.2077347386        7.3645633109        4.5078562001
  H        -4.2077347299        7.3645632719        1.1978068819
  H         0.6071583649        1.0465001732        1.1964174406
  H         8.4818032732        0.0022916783        4.5078544943
  H        -1.6284528162        5.3254766136        2.8528315589
  H         0.6034005602        7.1805921593        2.8528315404
  H         1.0952417964        4.3204237909        2.8528315625
  H         3.2070901557        3.0951493757        2.8528315485
  H         5.9342251097        4.0877344629        2.8528315420
  H         5.4314516435        1.2294438796        2.8528315643
  H        -0.3848103509        4.4906671776        4.0751304240
  H        -0.7389977923        6.5200723974        1.6290444364
  H         1.1950192243        5.8137176406        1.6299352197
    &END COORD
    &KIND K    
      ELEMENT K 
      BASIS_SET DZVP-MOLOPT-SR-GTH
      POTENTIAL GTH-PBE
    &END KIND
    &KIND Re   
      ELEMENT Re
      BASIS_SET DZVP-MOLOPT-SR-GTH
      POTENTIAL GTH-PBE
    &END KIND
    &KIND H    
      ELEMENT H 
      BASIS_SET DZVP-MOLOPT-SR-GTH
      POTENTIAL GTH-PBE
    &END KIND
  &END SUBSYS

  &DFT
    BASIS_SET_FILE_NAME  BASIS_MOLOPT
    POTENTIAL_FILE_NAME  POTENTIAL
#   WFN_RESTART_FILE_NAME k2reh9-opt-RESTART.wfn
    CHARGE    0 #Net charge
    MULTIPLICITY    1 #Spin multiplicity
    &KPOINTS
      SCHEME MONKHORST-PACK  5  5  8
      SYMMETRY F #If using symmetry to reduce the number of k-points
    &END KPOINTS
    &QS
      EPS_DEFAULT 1E-10 #This is default. Set all EPS_xxx to values such that the energy will be correct up to this value
    &END QS
    &POISSON
      PERIODIC XYZ #Direction(s) of PBC for calculating electrostatics
      PSOLVER PERIODIC #The way to solve Poisson equation
    &END POISSON
    &XC
      &XC_FUNCTIONAL PBE
        &PBE
          PARAMETRIZATION REVPBE
        &END PBE
      &END XC_FUNCTIONAL
    &END XC
    &MGRID
      CUTOFF 825
      REL_CUTOFF 75
    &END MGRID
    &SCF
      MAX_SCF 128
      EPS_SCF 1.0E-06 #Convergence threshold of density matrix during SCF
#     SCF_GUESS RESTART #Use wavefunction from WFN_RESTART_FILE_NAME file as initial guess
      &DIAGONALIZATION
        ALGORITHM STANDARD #Algorithm for diagonalization. DAVIDSON is faster for large systems
      &END DIAGONALIZATION
      &MIXING #How to mix old and new density matrices
        METHOD BROYDEN_MIXING #PULAY_MIXING is also a good alternative
        ALPHA 0.4 #Default. Mixing 40% of new density matrix with the old one
        NBROYDEN 8 #Default is 4. Number of previous steps stored for the actual mixing scheme
      &END MIXING
      &PRINT
        &RESTART #Use "&RESTART OFF" can prevent generating wfn file
          BACKUP_COPIES 0 #Maximum number of backup copies of wfn file
        &END RESTART
      &END PRINT
    &END SCF
  &END DFT
  STRESS_TENSOR ANALYTICAL
&END FORCE_EVAL

&MOTION
  &CELL_OPT
    MAX_ITER 250 #Maximum number of geometry optimization
    EXTERNAL_PRESSURE 1.01325 #External pressure for cell optimization (bar)
    CONSTRAINT NONE #Can be e.g. Z, XY to fix corresponding cell length
    KEEP_ANGLES F #If T, then cell angles will be kepted
    KEEP_SYMMETRY F #If T, crystal symmetry will be kepted, and symmetry should be specified in &CELL
    TYPE DIRECT_CELL_OPT #Geometry and cell are optimized at the same time. Can also be GEO_OPT, MD
    #The following thresholds of optimization convergence are the default ones
    MAX_DR 0.000060  #Maximum geometry change
    RMS_DR 0.000040  #RMS geometry change
    MAX_FORCE 0.000015  #Maximum force
    RMS_FORCE 0.000010  #RMS force
    PRESSURE_TOLERANCE 100 #Pressure tolerance (w.r.t EXTERNAL_PRESSURE)
    OPTIMIZER BFGS #Can also be CG (more robust for difficult cases) or LBFGS
    &BFGS
      TRUST_RADIUS 0.2 #Trust radius (maximum stepsize) in Angstrom
#     RESTART_HESSIAN T #If read initial Hessian, uncomment this line and specify the file in the next line
#     RESTART_FILE_NAME to_be_specified
    &END BFGS
  &END CELL_OPT
  &PRINT
    &RESTART
      BACKUP_COPIES 0 #Maximum number of backing up restart file
    &END RESTART
    &RESTART_HISTORY
      &EACH
        CELL_OPT 0 #How often a history .restart file is generated, 0 means never
      &END EACH
    &END RESTART_HISTORY
    &CELL 
    &END CELL     
  &END PRINT
&END MOTION


