# Generated by Phonopy, based on na2reh9-template.inp
# Merged configuration with displacements
&FORCE_EVAL
   METHOD QUICKSTEP
   STRESS_TENSOR ANALYTICAL
   &PRINT
      &FORCES
         ADD_LAST NUMERIC
         FILENAME forces
      &END FORCES
      &STRESS_TENSOR
         ADD_LAST NUMERIC
         FILENAME stress_tensor
      &END STRESS_TENSOR
   &END PRINT
   &SUBSYS
      &KIND H
         ELEMENT H
         BASIS_SET DZVP-MOLOPT-SR-GTH
         POTENTIAL GTH-PBE
      &END KIND
      &KIND Re
         ELEMENT Re
         BASIS_SET DZVP-MOLOPT-SR-GTH
         POTENTIAL GTH-PBE
      &END KIND
      &KIND Na
         ELEMENT Na
         BASIS_SET DZVP-MOLOPT-SR-GTH
         POTENTIAL GTH-PBE
      &END KIND
      &COORD
         Na -1.1809069865 2.0379623261 2.624186901
         Na 3.2449119044999986 5.6448521398 2.6241867646
         Na 2.3578700047999996 0.0007892838 2.6241868725999993
         Na 6.2644840195 4.5068346666 1.6799999999999997e-07
         Na 1.825169317800001 3.1750730554 1.576e-07
         Na 0.7419488750999992 7.6815143933 1.673e-07
         Re 4.436456455700002 2.5642868258 2.6242178317
         Re -0.01674538839999951 5.124266305100002 2.6242177424
         Re 0.0017170474999999995 0.003011105300000001 9.425199999999999e-06
         H 5.6222385887 2.4929720119 3.844463812299999
         H 3.9052360918999995 3.6232613245 3.847293115499999
         H 3.7846319841999994 1.5754147357000003 3.847335451599999
         H -0.5432325121 4.0633761049 1.4010781033
         H 3.7846337784 1.5754183851 1.401097636
         H 5.6222353787 2.492972907999999 1.4039700228
         H 3.9052378287999994 3.6232592016 1.4011411060999996
         H -0.6751167152999991 6.113046433700002 3.8444723455
         H 1.165729701000001 5.198142848899998 3.8472647704
         H 1.6763457738 0.0076515368000000025 1.089e-06
         H 3.583508037500002 6.2338251923 1.6665e-06
         H -0.8370053878999996 1.4524719986 1.0867999999999997e-06
         H 7.6815358956 0.0008872303000000002 1.1958253823
         H 0.6038026414 1.0503904668 4.0506195218
         H -3.864947171999999 6.6385181149 4.0525569576
         H -3.864946826899999 6.638518009 1.1958373681
         H 0.6038029995999996 1.0503908521 1.1977742281
         H 7.6815360048 0.0008870488 4.052569076799999
         H -1.682286407 5.023052875 2.6242153249999998
         H 0.7327983273999987 6.615271221 2.624216326099999
         H 0.9014162231000011 3.730154377600001 2.6242158401
         H 2.7696859375000003 2.6561823231 2.6242158698
         H 5.3476415856 3.9623777672 2.6242164032
         H 5.1871788616 1.0740919399 2.6242154474999997
         H -0.5432348503999994 4.0633727533 3.8473548145
         H -0.6751143292999994 6.1130441536 1.4039612321999997
         H 1.1657270304000014 5.1981432445 1.4011693676
      &END COORD
      &CELL
         A 8.8901326513 0.0 0.0
         B -4.4739104629 7.6824375325 0.0
         C 1e-07 3.943e-07 5.2483716421         
         PERIODIC XYZ
      &END CELL
   &END SUBSYS
   &DFT
      BASIS_SET_FILE_NAME BASIS_MOLOPT
      POTENTIAL_FILE_NAME POTENTIAL
      &MGRID
         REL_CUTOFF 80.0
         CUTOFF 900.0
      &END MGRID
      &XC
         &XC_FUNCTIONAL PBE
            &PBE
               PARAMETRIZATION REVPBE
            &END PBE
         &END XC_FUNCTIONAL
      &END XC
      &KPOINTS
         SCHEME MONKHORST-PACK 5 5 8
         SYMMETRY .FALSE.
      &END KPOINTS
      &SCF
         EPS_SCF 1e-07
         MAX_SCF 80
         &MIXING
            METHOD BROYDEN_MIXING
            ALPHA 0.4
            NBUFFER 8
         &END MIXING
         &DIAGONALIZATION
            ALGORITHM STANDARD
         &END DIAGONALIZATION
      &END SCF
      &POISSON
         PERIODIC XYZ
         POISSON_SOLVER PERIODIC
      &END POISSON
      &QS
         EPS_DEFAULT 1e-10
      &END QS
   &END DFT
&END FORCE_EVAL
&GLOBAL
   PROJECT_NAME na2reh9-phonopy-supercell-001
   RUN_TYPE ENERGY_FORCE
   PRINT_LEVEL MEDIUM
&END GLOBAL               
