#Generated by Multiwfn
&GLOBAL
  PROJECT k2-refine-freq
  PRINT_LEVEL MEDIUM
  RUN_TYPE VIBRATIONAL_ANALYSIS
&END GLOBAL

&FORCE_EVAL
  METHOD Quickstep
  &SUBSYS
    &CELL
      A     9.7154601050        0.0000000000        0.0000000000
      B    -4.8583032251        8.4134784197        0.0000000000
      C     -0.0000048135       -0.0000078762        5.6945465926
      PERIODIC XYZ #Direction of applied PBC (geometry aspect)
    &END CELL
    &COORD
  K        -1.2717444316        2.2034502965        2.8470104286
  K         3.5860479359        6.2116264326        2.8470414297
  K         2.5441673793        0.0005069845        2.8470105500
  K        -2.8664982103        4.9640103204       -0.0002691372
  K         1.9919809386        3.4504437696       -0.0002481916
  K         5.7322486247       -0.0000606935       -0.0002691208
 Re         4.8578753089        2.8054541385        2.8470302019
 Re         0.0003345425        5.6097335267        2.8470301311
 Re         0.0003406364        0.0005363186       -0.0002407693
  H         6.0318408651        2.6225498479        4.0708725666
  H         4.4291201342        3.9136919383        4.0706909878
  H         4.1125879533        1.8801461820        4.0708571241
  H        -0.4282825066        4.5016125249        1.6232100820
  H         4.1125863706        1.8801513315        1.6232012617
  H         6.0318388962        2.6225540649        1.6231796732
  H         4.4291142103        3.9136997301        1.6233758117
  H        -0.7451026988        6.5349089400        4.0708601931
  H         1.1744732842        5.7926227251        4.0707068918
  H         1.6786597913        0.0005874087       -0.0002624812
  H         4.0184027906        6.9605294583       -0.0002696641
  H        -0.8388731978        1.4539493631       -0.0002624278
  H         8.5073111255        0.0005134857        1.1978276666
  H         0.6045199441        1.0470807705        4.4961739186
  H        -4.2536730257        7.3674658865        4.4962388277
  H        -4.2536811640        7.3674669181        1.1978123072
  H         0.6045200337        1.0470806825        1.1978988291
  H         8.5073057336        0.0005201478        4.4962231782
  H        -1.6564785794        5.3554871447        2.8470329264
  H         0.6084571955        7.1717438292        2.8470366227
  H         1.0487876716        4.3019244622        2.8470389912
  H         3.2010232060        3.0594336945        2.8470390703
  H         5.9064519076        4.1131982559        2.8470367529
  H         5.4661799457        1.2435429741        2.8470328975
  H        -0.4282878791        4.5016116953        4.0708480056
  H        -0.7450971903        6.5349082052        1.6231930653
  H         1.1744841476        5.7926214329        1.6233587569
    &END COORD
    &KIND K    
      ELEMENT K 
      BASIS_SET DZVP-MOLOPT-SR-GTH
      POTENTIAL GTH-PBE
    &END KIND
    &KIND Re   
      ELEMENT Re
      BASIS_SET DZVP-MOLOPT-SR-GTH
      POTENTIAL GTH-PBE
    &END KIND
    &KIND H    
      ELEMENT H 
      BASIS_SET DZVP-MOLOPT-SR-GTH
      POTENTIAL GTH-PBE
    &END KIND
  &END SUBSYS

  &DFT
    BASIS_SET_FILE_NAME  BASIS_MOLOPT
    POTENTIAL_FILE_NAME  POTENTIAL
#   WFN_RESTART_FILE_NAME k2-freq-template-RESTART.wfn
    CHARGE    0 #Net charge
    MULTIPLICITY    1 #Spin multiplicity
    &KPOINTS
      SCHEME MONKHORST-PACK  5  5  8
      SYMMETRY F #If using symmetry to reduce the number of k-points
    &END KPOINTS
    &QS
      EPS_DEFAULT 1E-10 #This is default. Set all EPS_xxx to values such that the energy will be correct up to this value
    &END QS
    &POISSON
      PERIODIC XYZ #Direction(s) of PBC for calculating electrostatics
      PSOLVER PERIODIC #The way to solve Poisson equation
    &END POISSON
    &XC
      &XC_FUNCTIONAL PBE
        &PBE
          PARAMETRIZATION REVPBE
        &END PBE
      &END XC_FUNCTIONAL
    &END XC
    &MGRID
      CUTOFF 825
      REL_CUTOFF 75
    &END MGRID
    &SCF
      MAX_SCF 128
      EPS_SCF 1.0E-07 #Convergence threshold of density matrix during SCF
#     SCF_GUESS RESTART #Use wavefunction from WFN_RESTART_FILE_NAME file as initial guess
      &DIAGONALIZATION
        ALGORITHM STANDARD #Algorithm for diagonalization. DAVIDSON is faster for large systems
      &END DIAGONALIZATION
      &MIXING #How to mix old and new density matrices
        METHOD BROYDEN_MIXING #PULAY_MIXING is also a good alternative
        ALPHA 0.4 #Default. Mixing 40% of new density matrix with the old one
        NBROYDEN 8 #Default is 4. Number of previous steps stored for the actual mixing scheme
      &END MIXING
    &END SCF
    &PRINT
      &MOMENTS
      &END MOMENTS
    &END PRINT
  &END DFT
&END FORCE_EVAL

&MOTION
  &PRINT
    &RESTART
      BACKUP_COPIES 0 #Maximum number of backing up restart file
    &END RESTART
  &END PRINT
&END MOTION
&VIBRATIONAL_ANALYSIS
  DX 0.008 #Step size of finite difference. This is default (Bohr)
  NPROC_REP 1 #Number of processors to be used per replica. This is default
  TC_PRESSURE 101325 #1 atm. Pressure for calculate thermodynamic data (Pa)
  TC_TEMPERATURE 298.15 #Temperature for calculate thermodynamic data (K)
  THERMOCHEMISTRY #Print thermochemistry information (only correct for gas molecule!)
  INTENSITIES F #Calculate IR intensities
  &PRINT
    &HESSIAN high 
    &END HESSIAN   
    &MOLDEN_VIB #Output .mol (Molden file) for visualization vibrational modes
    &END MOLDEN_VIB
  &END PRINT
&END VIBRATIONAL_ANALYSIS
