%chk=ben.chk
%nproc=36
#p hf/6-31g opt freq  geom=connectivity

Title Card Required

0 1
 C                 -0.54491017    1.16167665    0.00000000
 C                  0.85024983    1.16167665    0.00000000
 C                  1.54778783    2.36942765    0.00000000
 C                  0.85013383    3.57793665   -0.00119900
 C                 -0.54469117    3.57785865   -0.00167800
 C                 -1.24229217    2.36965265   -0.00068200
 H                 -1.09466917    0.20935965    0.00045000
 H                  1.39975783    0.20916365    0.00131500
 H                  2.64746783    2.36950765    0.00063400
 H                  1.40033383    4.53007965   -0.00125800
 H                 -1.09481317    4.53013965   -0.00263100
 H                 -2.34189617    2.36983565   -0.00086200

 1 2 1.5 6 1.5 7 1.0
 2 3 1.5 8 1.0
 3 4 1.5 9 1.0
 4 5 1.5 10 1.0
 5 6 1.5 11 1.0
 6 12 1.0
 7
 8
 9
 10
 11
 12

