phonons of diamond at Gamma
 &inputph
  tr2_ph=1.0d-14,
  epsil=.true.,
  prefix='carbon',
  fildyn='dynmat.dyn1',
  amass(1)=12.0107,
  outdir='./outp'
 /
0.0 0.0 0.0
