 &input
   fildyn='dynmat.dyn',
   zasr='simple', 
   flfrc='diamond.fc'
 /
