&CONTROL
    pseudo_dir = '.'
    outdir = './outp'
    calculation = 'scf'
    prefix='carbon'
 /

 &SYSTEM
    ibrav = 0
    nat = 2
    ntyp = 1
    ecutwfc = 40.0
    ecutrho = 400.0
 /

 &ELECTRONS
  scf_must_converge = .true.
 /

ATOMIC_SPECIES
 C 12.0107  C.pbe-n-rrkjus_psl.1.0.0.UPF

CELL_PARAMETERS (angstrom)
   2.522557697   0.000000000  -0.000000000
   1.261278849   2.184599048  -0.000000000
   1.261278849   0.728199683   2.060840365

ATOMIC_POSITIONS (angstrom)
C        3.783836546   2.184599048   1.545801941
C        2.522557698   1.456399366   1.030248516


K_POINTS automatic
  5 5 5 1 1 1
